(set-logic HORN)

(declare-fun __VERIFIER_assert (Int) Bool)
(declare-fun $main_if181 (Int Int Int Int Int Int Int Int Int Int) Bool)
(declare-fun $main_if188 (Int Int Int Int Int Int Int Int Int Int) Bool)
(declare-fun $assume_abort_if_not_pre (Int) Bool)
(declare-fun $main_if186 (Int Int Int Int Int Int Int Int Int Int) Bool)
(declare-fun $main_if189 (Int Int Int Int Int Int Int Int Int Int) Bool)
(declare-fun $main_if179 (Int Int Int Int Int Int Int Int Int Int) Bool)
(declare-fun $__VERIFIER_assert_pre (Int) Bool)
(declare-fun $main_sum449 (Int Int Int Int Int Int Int Int Int Int) Bool)
(declare-fun $main_if187 (Int Int Int Int Int Int Int Int Int Int) Bool)
(declare-fun $main_if190 (Int Int Int Int Int Int Int Int Int Int) Bool)
(declare-fun assume_abort_if_not (Int) Bool)
(declare-fun $main_if178 (Int Int Int Int Int Int Int Int Int Int) Bool)
(declare-fun $assume_abort_if_not_if176 (Int Int) Bool)
(declare-fun $__VERIFIER_assert_if177 (Int Int) Bool)
(declare-fun $main_sum450 (Int Int Int Int Int Int Int Int Int Int) Bool)
(declare-fun $main_inv449 (Int Int Int Int Int) Bool)
(declare-fun $main_if184 (Int Int Int Int Int Int Int Int Int Int) Bool)
(declare-fun $main_if182 (Int Int Int Int Int Int Int Int Int Int) Bool)
(declare-fun $__VERIFIER_assert_ERROR (Int Int) Bool)
(declare-fun $main_inv450 (Int Int Int Int Int) Bool)
(declare-fun $main_if183 (Int Int Int Int Int Int Int Int Int Int) Bool)
(declare-fun $main_END (Int Int Int Int Int Int Int Int Int Int) Bool)
(declare-fun $main_if180 (Int Int Int Int Int Int Int Int Int Int) Bool)
(declare-fun $main_if185 (Int Int Int Int Int Int Int Int Int Int) Bool)

; if else
(assert
  (forall ((cond Int))
    (=> (and (not (= cond 0))
             ($assume_abort_if_not_pre cond))
        ($assume_abort_if_not_if176 cond cond))))

; post assume_abort_if_not
(assert
  (forall ((cond8265 Int) (cond Int))
    (=> (and ($assume_abort_if_not_if176 cond cond8265))
        (assume_abort_if_not cond8265))))

; label ERROR
(assert
  (forall ((cond Int))
    (=> (and (= cond 0)
             ($__VERIFIER_assert_pre cond))
        ($__VERIFIER_assert_ERROR cond cond))))

; error
(assert
  (forall ((cond Int) (cond8266 Int))
    (=> (and ($__VERIFIER_assert_ERROR cond cond8266))
        false)))

; if else
(assert
  (forall ((cond Int))
    (=> (and (not (= cond 0))
             ($__VERIFIER_assert_pre cond))
        ($__VERIFIER_assert_if177 cond cond))))

; post __VERIFIER_assert
(assert
  (forall ((cond8267 Int) (cond Int))
    (=> (and ($__VERIFIER_assert_if177 cond cond8267))
        (__VERIFIER_assert cond8267))))

; if else
(assert
  (forall (($scheme567 Int) ($c571 Int) ($int8268 Int) ($urilen568 Int) ($int8269 Int) ($tokenlen569 Int) ($cp570 Int) ($int8270 Int))
    (=> (and (<= $int8268 1000000)
             (>= $int8268 (- 1000000))
             (<= (- 2147483648) $int8270)
             (<= $int8270 2147483647)
             (<= (- 2147483648) $int8269)
             (<= $int8269 2147483647)
             (<= (- 2147483648) $int8268)
             (<= $int8268 2147483647))
        ($main_if178 $scheme567 $urilen568 $tokenlen569 $cp570 $c571 $int8270 $int8268 $int8269 $cp570 $c571))))

; if else
(assert
  (forall (($scheme567 Int) ($c571 Int) ($urilen568 Int) ($cp5708274 Int) ($c5718275 Int) ($tokenlen569 Int) ($cp570 Int) ($scheme5678271 Int) ($urilen5688272 Int) ($tokenlen5698273 Int))
    (=> (and (<= $tokenlen5698273 1000000)
             (>= $tokenlen5698273 (- 1000000))
             ($main_if178 $scheme567 $urilen568 $tokenlen569 $cp570 $c571 $scheme5678271 $urilen5688272 $tokenlen5698273 $cp5708274 $c5718275))
        ($main_if179 $scheme567 $urilen568 $tokenlen569 $cp570 $c571 $scheme5678271 $urilen5688272 $tokenlen5698273 $cp5708274 $c5718275))))

; if else
(assert
  (forall (($tokenlen5698278 Int) ($scheme567 Int) ($c571 Int) ($urilen568 Int) ($urilen5688277 Int) ($tokenlen569 Int) ($scheme5678276 Int) ($cp5708279 Int) ($cp570 Int) ($c5718280 Int))
    (=> (and (<= $scheme5678276 1000000)
             (>= $scheme5678276 (- 1000000))
             ($main_if179 $scheme567 $urilen568 $tokenlen569 $cp570 $c571 $scheme5678276 $urilen5688277 $tokenlen5698278 $cp5708279 $c5718280))
        ($main_if180 $scheme567 $urilen568 $tokenlen569 $cp570 $c571 $scheme5678276 $urilen5688277 $tokenlen5698278 $cp5708279 $c5718280))))

; goto END
(assert
  (forall (($scheme567 Int) ($scheme5678281 Int) ($urilen5688282 Int) ($urilen568 Int) ($tokenlen569 Int) ($cp5708284 Int) ($tokenlen5698283 Int) ($c571 Int) ($c5718285 Int) ($cp570 Int))
    (=> (and (not (> $urilen5688282 0))
             ($main_if180 $scheme567 $urilen568 $tokenlen569 $cp570 $c571 $scheme5678281 $urilen5688282 $tokenlen5698283 $cp5708284 $c5718285))
        ($main_END $scheme567 $urilen568 $tokenlen569 $cp570 $c571 $scheme5678281 $urilen5688282 $tokenlen5698283 $cp5708284 $c5718285))))

; if then
(assert
  (forall (($scheme567 Int) ($scheme5678281 Int) ($urilen5688282 Int) ($urilen568 Int) ($tokenlen569 Int) ($cp5708284 Int) ($tokenlen5698283 Int) ($c571 Int) ($c5718285 Int) ($cp570 Int))
    (=> (and (> $urilen5688282 0)
             ($main_if180 $scheme567 $urilen568 $tokenlen569 $cp570 $c571 $scheme5678281 $urilen5688282 $tokenlen5698283 $cp5708284 $c5718285))
        ($main_if181 $scheme567 $urilen568 $tokenlen569 $cp570 $c571 $scheme5678281 $urilen5688282 $tokenlen5698283 $cp5708284 $c5718285))))

; goto END
(assert
  (forall (($cp5708289 Int) ($tokenlen5698288 Int) ($c571 Int) ($urilen568 Int) ($tokenlen569 Int) ($urilen5688287 Int) ($scheme567 Int) ($c5718290 Int) ($scheme5678286 Int) ($cp570 Int))
    (=> (and (not (> $tokenlen5698288 0))
             ($main_if181 $scheme567 $urilen568 $tokenlen569 $cp570 $c571 $scheme5678286 $urilen5688287 $tokenlen5698288 $cp5708289 $c5718290))
        ($main_END $scheme567 $urilen568 $tokenlen569 $cp570 $c571 $scheme5678286 $urilen5688287 $tokenlen5698288 $cp5708289 $c5718290))))

; if then
(assert
  (forall (($cp5708289 Int) ($tokenlen5698288 Int) ($c571 Int) ($urilen568 Int) ($tokenlen569 Int) ($urilen5688287 Int) ($scheme567 Int) ($c5718290 Int) ($scheme5678286 Int) ($cp570 Int))
    (=> (and (> $tokenlen5698288 0)
             ($main_if181 $scheme567 $urilen568 $tokenlen569 $cp570 $c571 $scheme5678286 $urilen5688287 $tokenlen5698288 $cp5708289 $c5718290))
        ($main_if182 $scheme567 $urilen568 $tokenlen569 $cp570 $c571 $scheme5678286 $urilen5688287 $tokenlen5698288 $cp5708289 $c5718290))))

; goto END
(assert
  (forall (($c571 Int) ($c5718295 Int) ($urilen568 Int) ($tokenlen5698293 Int) ($cp5708294 Int) ($cp570 Int) ($scheme567 Int) ($urilen5688292 Int) ($scheme5678291 Int) ($tokenlen569 Int))
    (=> (and (not (>= $scheme5678291 0))
             ($main_if182 $scheme567 $urilen568 $tokenlen569 $cp570 $c571 $scheme5678291 $urilen5688292 $tokenlen5698293 $cp5708294 $c5718295))
        ($main_END $scheme567 $urilen568 $tokenlen569 $cp570 $c571 $scheme5678291 $urilen5688292 $tokenlen5698293 $cp5708294 $c5718295))))

; if then
(assert
  (forall (($c571 Int) ($c5718295 Int) ($urilen568 Int) ($tokenlen5698293 Int) ($cp5708294 Int) ($cp570 Int) ($scheme567 Int) ($urilen5688292 Int) ($scheme5678291 Int) ($tokenlen569 Int))
    (=> (and (>= $scheme5678291 0)
             ($main_if182 $scheme567 $urilen568 $tokenlen569 $cp570 $c571 $scheme5678291 $urilen5688292 $tokenlen5698293 $cp5708294 $c5718295))
        ($main_if183 $scheme567 $urilen568 $tokenlen569 $cp570 $c571 $scheme5678291 $urilen5688292 $tokenlen5698293 $cp5708294 $c5718295))))

; goto END
(assert
  (forall (($scheme567 Int) ($c571 Int) ($urilen568 Int) ($tokenlen5698298 Int) ($cp5708299 Int) ($c5718300 Int) ($urilen5688297 Int) ($cp570 Int) ($scheme5678296 Int) ($tokenlen569 Int))
    (=> (and (or (= $scheme5678296 0) (< (- $urilen5688297 1) $scheme5678296))
             ($main_if183 $scheme567 $urilen568 $tokenlen569 $cp570 $c571 $scheme5678296 $urilen5688297 $tokenlen5698298 $cp5708299 $c5718300))
        ($main_END $scheme567 $urilen568 $tokenlen569 $cp570 $c571 $scheme5678296 $urilen5688297 $tokenlen5698298 $cp5708299 $c5718300))))

; if else
(assert
  (forall (($scheme567 Int) ($c571 Int) ($urilen568 Int) ($tokenlen5698298 Int) ($cp5708299 Int) ($c5718300 Int) ($urilen5688297 Int) ($cp570 Int) ($scheme5678296 Int) ($tokenlen569 Int))
    (=> (and (not (or (= $scheme5678296 0) (< (- $urilen5688297 1) $scheme5678296)))
             ($main_if183 $scheme567 $urilen568 $tokenlen569 $cp570 $c571 $scheme5678296 $urilen5688297 $tokenlen5698298 $cp5708299 $c5718300))
        ($main_if184 $scheme567 $urilen568 $tokenlen569 $cp570 $c571 $scheme5678296 $urilen5688297 $tokenlen5698298 $cp5708299 $c5718300))))

; __VERIFIER_assert precondition
(assert
  (forall (($c571 Int) ($c5718305 Int) ($urilen568 Int) ($tokenlen5698303 Int) ($scheme5678301 Int) ($tokenlen569 Int) ($cp5708304 Int) ($cp570 Int) ($scheme567 Int) ($urilen5688302 Int))
    (=> (and ($main_if184 $scheme567 $urilen568 $tokenlen569 $cp570 $c571 $scheme5678301 $urilen5688302 $tokenlen5698303 $cp5708304 $c5718305))
        ($__VERIFIER_assert_pre (ite (< (- $scheme5678301 1) $urilen5688302) 1 0)))))

; __VERIFIER_assert precondition
(assert
  (forall (($c571 Int) ($c5718305 Int) ($urilen568 Int) ($tokenlen5698303 Int) ($scheme5678301 Int) ($tokenlen569 Int) ($cp5708304 Int) ($cp570 Int) ($scheme567 Int) ($urilen5688302 Int))
    (=> (and (__VERIFIER_assert (ite (< (- $scheme5678301 1) $urilen5688302) 1 0))
             ($main_if184 $scheme567 $urilen568 $tokenlen569 $cp570 $c571 $scheme5678301 $urilen5688302 $tokenlen5698303 $cp5708304 $c5718305))
        ($__VERIFIER_assert_pre (ite (<= 0 (- $scheme5678301 1)) 1 0)))))

; __VERIFIER_assert precondition
(assert
  (forall (($c571 Int) ($c5718305 Int) ($urilen568 Int) ($tokenlen5698303 Int) ($int8306 Int) ($scheme5678301 Int) ($tokenlen569 Int) ($cp5708304 Int) ($cp570 Int) ($scheme567 Int) ($urilen5688302 Int))
    (=> (and (not (= $int8306 0))
             (<= (- 2147483648) $int8306)
             (<= $int8306 2147483647)
             (__VERIFIER_assert (ite (<= 0 (- $scheme5678301 1)) 1 0))
             (__VERIFIER_assert (ite (< (- $scheme5678301 1) $urilen5688302) 1 0))
             ($main_if184 $scheme567 $urilen568 $tokenlen569 $cp570 $c571 $scheme5678301 $urilen5688302 $tokenlen5698303 $cp5708304 $c5718305))
        ($__VERIFIER_assert_pre (ite (< $scheme5678301 $urilen5688302) 1 0)))))

; __VERIFIER_assert precondition
(assert
  (forall (($c571 Int) ($c5718305 Int) ($urilen568 Int) ($tokenlen5698303 Int) ($int8306 Int) ($scheme5678301 Int) ($tokenlen569 Int) ($cp5708304 Int) ($cp570 Int) ($scheme567 Int) ($urilen5688302 Int))
    (=> (and (__VERIFIER_assert (ite (< $scheme5678301 $urilen5688302) 1 0))
             (not (= $int8306 0))
             (<= (- 2147483648) $int8306)
             (<= $int8306 2147483647)
             (__VERIFIER_assert (ite (<= 0 (- $scheme5678301 1)) 1 0))
             (__VERIFIER_assert (ite (< (- $scheme5678301 1) $urilen5688302) 1 0))
             ($main_if184 $scheme567 $urilen568 $tokenlen569 $cp570 $c571 $scheme5678301 $urilen5688302 $tokenlen5698303 $cp5708304 $c5718305))
        ($__VERIFIER_assert_pre (ite (<= 0 $scheme5678301) 1 0)))))

; loop entry $main_inv449
(assert
  (forall (($c571 Int) ($c5718305 Int) ($urilen568 Int) ($tokenlen5698303 Int) ($int8306 Int) ($scheme5678301 Int) ($tokenlen569 Int) ($cp5708304 Int) ($cp570 Int) ($scheme567 Int) ($urilen5688302 Int))
    (=> (and (__VERIFIER_assert (ite (<= 0 $scheme5678301) 1 0))
             (__VERIFIER_assert (ite (< $scheme5678301 $urilen5688302) 1 0))
             (not (= $int8306 0))
             (<= (- 2147483648) $int8306)
             (<= $int8306 2147483647)
             (__VERIFIER_assert (ite (<= 0 (- $scheme5678301 1)) 1 0))
             (__VERIFIER_assert (ite (< (- $scheme5678301 1) $urilen5688302) 1 0))
             ($main_if184 $scheme567 $urilen568 $tokenlen569 $cp570 $c571 $scheme5678301 $urilen5688302 $tokenlen5698303 $cp5708304 $c5718305))
        ($main_inv449 $scheme5678301 $urilen5688302 $tokenlen5698303 $scheme5678301 $c5718305))))

; loop term $main_sum449
(assert
  (forall (($tokenlen5698309 Int) ($cp5708310 Int) ($scheme5678307 Int) ($c5718311 Int) ($urilen5688308 Int))
    (=> (and (= $cp5708310 (- $urilen5688308 1)))
        ($main_sum449 $scheme5678307 $urilen5688308 $tokenlen5698309 $cp5708310 $c5718311 $scheme5678307 $urilen5688308 $tokenlen5698309 $cp5708310 $c5718311))))

; break $main_sum449
(assert
  (forall (($tokenlen5698309 Int) ($int8312 Int) ($cp5708310 Int) ($scheme5678307 Int) ($c5718311 Int) ($urilen5688308 Int))
    (=> (and (not (= $int8312 0))
             (<= (- 2147483648) $int8312)
             (<= $int8312 2147483647)
             (not (= $cp5708310 (- $urilen5688308 1)))
             ($main_inv449 $scheme5678307 $urilen5688308 $tokenlen5698309 $cp5708310 $c5718311))
        ($main_sum449 $scheme5678307 $urilen5688308 $tokenlen5698309 $cp5708310 $c5718311 $scheme5678307 $urilen5688308 $tokenlen5698309 $cp5708310 $c5718311))))

; if else
(assert
  (forall (($tokenlen5698309 Int) ($int8312 Int) ($cp5708310 Int) ($scheme5678307 Int) ($c5718311 Int) ($urilen5688308 Int))
    (=> (and (= $int8312 0)
             (<= (- 2147483648) $int8312)
             (<= $int8312 2147483647)
             (not (= $cp5708310 (- $urilen5688308 1)))
             ($main_inv449 $scheme5678307 $urilen5688308 $tokenlen5698309 $cp5708310 $c5718311))
        ($main_if185 $scheme5678307 $urilen5688308 $tokenlen5698309 $cp5708310 $c5718311 $scheme5678307 $urilen5688308 $tokenlen5698309 $cp5708310 $c5718311))))

; __VERIFIER_assert precondition
(assert
  (forall (($tokenlen5698309 Int) ($cp5708310 Int) ($scheme5678307 Int) ($urilen5688314 Int) ($tokenlen5698315 Int) ($cp5708316 Int) ($scheme5678313 Int) ($c5718311 Int) ($urilen5688308 Int) ($c5718317 Int))
    (=> (and ($main_if185 $scheme5678307 $urilen5688308 $tokenlen5698309 $cp5708310 $c5718311 $scheme5678313 $urilen5688314 $tokenlen5698315 $cp5708316 $c5718317))
        ($__VERIFIER_assert_pre (ite (< $cp5708316 $urilen5688314) 1 0)))))

; __VERIFIER_assert precondition
(assert
  (forall (($tokenlen5698309 Int) ($cp5708310 Int) ($scheme5678307 Int) ($urilen5688314 Int) ($tokenlen5698315 Int) ($cp5708316 Int) ($scheme5678313 Int) ($c5718311 Int) ($urilen5688308 Int) ($c5718317 Int))
    (=> (and (__VERIFIER_assert (ite (< $cp5708316 $urilen5688314) 1 0))
             ($main_if185 $scheme5678307 $urilen5688308 $tokenlen5698309 $cp5708310 $c5718311 $scheme5678313 $urilen5688314 $tokenlen5698315 $cp5708316 $c5718317))
        ($__VERIFIER_assert_pre (ite (<= 0 $cp5708316) 1 0)))))

; forwards $main_inv449
(assert
  (forall (($tokenlen5698309 Int) ($cp5708310 Int) ($scheme5678307 Int) ($urilen5688314 Int) ($tokenlen5698315 Int) ($cp5708316 Int) ($scheme5678313 Int) ($c5718311 Int) ($urilen5688308 Int) ($c5718317 Int))
    (=> (and (__VERIFIER_assert (ite (<= 0 $cp5708316) 1 0))
             (__VERIFIER_assert (ite (< $cp5708316 $urilen5688314) 1 0))
             ($main_if185 $scheme5678307 $urilen5688308 $tokenlen5698309 $cp5708310 $c5718311 $scheme5678313 $urilen5688314 $tokenlen5698315 $cp5708316 $c5718317))
        ($main_inv449 $scheme5678313 $urilen5688314 $tokenlen5698315 (+ $cp5708316 1) $c5718317))))

; backwards $main_sum449
(assert
  (forall (($cp5708321 Int) ($tokenlen5698309 Int) ($cp5708310 Int) ($tokenlen5698315 Int) ($cp5708316 Int) ($urilen5688319 Int) ($scheme5678313 Int) ($c5718322 Int) ($c5718311 Int) ($urilen5688308 Int) ($c5718317 Int) ($scheme5678318 Int) ($scheme5678307 Int) ($tokenlen5698320 Int) ($urilen5688314 Int))
    (=> (and ($main_sum449 $scheme5678313 $urilen5688314 $tokenlen5698315 (+ $cp5708316 1) $c5718317 $scheme5678318 $urilen5688319 $tokenlen5698320 $cp5708321 $c5718322)
             (__VERIFIER_assert (ite (<= 0 $cp5708316) 1 0))
             (__VERIFIER_assert (ite (< $cp5708316 $urilen5688314) 1 0))
             ($main_if185 $scheme5678307 $urilen5688308 $tokenlen5698309 $cp5708310 $c5718311 $scheme5678313 $urilen5688314 $tokenlen5698315 $cp5708316 $c5718317))
        ($main_sum449 $scheme5678307 $urilen5688308 $tokenlen5698309 $cp5708310 $c5718311 $scheme5678318 $urilen5688319 $tokenlen5698320 $cp5708321 $c5718322))))

; __VERIFIER_assert precondition
(assert
  (forall (($c571 Int) ($c5718305 Int) ($urilen568 Int) ($tokenlen5698303 Int) ($scheme5678301 Int) ($c5718327 Int) ($tokenlen569 Int) ($urilen5688324 Int) ($scheme5678323 Int) ($cp570 Int) ($scheme567 Int) ($urilen5688302 Int) ($int8306 Int) ($tokenlen5698325 Int) ($cp5708326 Int) ($cp5708304 Int))
    (=> (and ($main_sum449 $scheme5678301 $urilen5688302 $tokenlen5698303 $scheme5678301 $c5718305 $scheme5678323 $urilen5688324 $tokenlen5698325 $cp5708326 $c5718327)
             (__VERIFIER_assert (ite (<= 0 $scheme5678301) 1 0))
             (__VERIFIER_assert (ite (< $scheme5678301 $urilen5688302) 1 0))
             (not (= $int8306 0))
             (<= (- 2147483648) $int8306)
             (<= $int8306 2147483647)
             (__VERIFIER_assert (ite (<= 0 (- $scheme5678301 1)) 1 0))
             (__VERIFIER_assert (ite (< (- $scheme5678301 1) $urilen5688302) 1 0))
             ($main_if184 $scheme567 $urilen568 $tokenlen569 $cp570 $c571 $scheme5678301 $urilen5688302 $tokenlen5698303 $cp5708304 $c5718305))
        ($__VERIFIER_assert_pre (ite (< $cp5708326 $urilen5688324) 1 0)))))

; __VERIFIER_assert precondition
(assert
  (forall (($c571 Int) ($c5718305 Int) ($urilen568 Int) ($tokenlen5698303 Int) ($scheme5678301 Int) ($c5718327 Int) ($tokenlen569 Int) ($urilen5688324 Int) ($scheme5678323 Int) ($cp570 Int) ($scheme567 Int) ($urilen5688302 Int) ($int8306 Int) ($tokenlen5698325 Int) ($cp5708326 Int) ($cp5708304 Int))
    (=> (and (__VERIFIER_assert (ite (< $cp5708326 $urilen5688324) 1 0))
             ($main_sum449 $scheme5678301 $urilen5688302 $tokenlen5698303 $scheme5678301 $c5718305 $scheme5678323 $urilen5688324 $tokenlen5698325 $cp5708326 $c5718327)
             (__VERIFIER_assert (ite (<= 0 $scheme5678301) 1 0))
             (__VERIFIER_assert (ite (< $scheme5678301 $urilen5688302) 1 0))
             (not (= $int8306 0))
             (<= (- 2147483648) $int8306)
             (<= $int8306 2147483647)
             (__VERIFIER_assert (ite (<= 0 (- $scheme5678301 1)) 1 0))
             (__VERIFIER_assert (ite (< (- $scheme5678301 1) $urilen5688302) 1 0))
             ($main_if184 $scheme567 $urilen568 $tokenlen569 $cp570 $c571 $scheme5678301 $urilen5688302 $tokenlen5698303 $cp5708304 $c5718305))
        ($__VERIFIER_assert_pre (ite (<= 0 $cp5708326) 1 0)))))

; goto END
(assert
  (forall (($c571 Int) ($c5718305 Int) ($urilen568 Int) ($tokenlen5698303 Int) ($scheme5678301 Int) ($c5718327 Int) ($tokenlen569 Int) ($urilen5688324 Int) ($scheme5678323 Int) ($cp570 Int) ($scheme567 Int) ($urilen5688302 Int) ($int8306 Int) ($tokenlen5698325 Int) ($cp5708326 Int) ($cp5708304 Int))
    (=> (and (= $cp5708326 (- $urilen5688324 1))
             (__VERIFIER_assert (ite (<= 0 $cp5708326) 1 0))
             (__VERIFIER_assert (ite (< $cp5708326 $urilen5688324) 1 0))
             ($main_sum449 $scheme5678301 $urilen5688302 $tokenlen5698303 $scheme5678301 $c5718305 $scheme5678323 $urilen5688324 $tokenlen5698325 $cp5708326 $c5718327)
             (__VERIFIER_assert (ite (<= 0 $scheme5678301) 1 0))
             (__VERIFIER_assert (ite (< $scheme5678301 $urilen5688302) 1 0))
             (not (= $int8306 0))
             (<= (- 2147483648) $int8306)
             (<= $int8306 2147483647)
             (__VERIFIER_assert (ite (<= 0 (- $scheme5678301 1)) 1 0))
             (__VERIFIER_assert (ite (< (- $scheme5678301 1) $urilen5688302) 1 0))
             ($main_if184 $scheme567 $urilen568 $tokenlen569 $cp570 $c571 $scheme5678301 $urilen5688302 $tokenlen5698303 $cp5708304 $c5718305))
        ($main_END $scheme567 $urilen568 $tokenlen569 $cp570 $c571 $scheme5678323 $urilen5688324 $tokenlen5698325 $cp5708326 $c5718327))))

; if else
(assert
  (forall (($c571 Int) ($c5718305 Int) ($urilen568 Int) ($tokenlen5698303 Int) ($scheme5678301 Int) ($c5718327 Int) ($tokenlen569 Int) ($urilen5688324 Int) ($scheme5678323 Int) ($cp570 Int) ($scheme567 Int) ($urilen5688302 Int) ($int8306 Int) ($tokenlen5698325 Int) ($cp5708326 Int) ($cp5708304 Int))
    (=> (and (not (= $cp5708326 (- $urilen5688324 1)))
             (__VERIFIER_assert (ite (<= 0 $cp5708326) 1 0))
             (__VERIFIER_assert (ite (< $cp5708326 $urilen5688324) 1 0))
             ($main_sum449 $scheme5678301 $urilen5688302 $tokenlen5698303 $scheme5678301 $c5718305 $scheme5678323 $urilen5688324 $tokenlen5698325 $cp5708326 $c5718327)
             (__VERIFIER_assert (ite (<= 0 $scheme5678301) 1 0))
             (__VERIFIER_assert (ite (< $scheme5678301 $urilen5688302) 1 0))
             (not (= $int8306 0))
             (<= (- 2147483648) $int8306)
             (<= $int8306 2147483647)
             (__VERIFIER_assert (ite (<= 0 (- $scheme5678301 1)) 1 0))
             (__VERIFIER_assert (ite (< (- $scheme5678301 1) $urilen5688302) 1 0))
             ($main_if184 $scheme567 $urilen568 $tokenlen569 $cp570 $c571 $scheme5678301 $urilen5688302 $tokenlen5698303 $cp5708304 $c5718305))
        ($main_if186 $scheme567 $urilen568 $tokenlen569 $cp570 $c571 $scheme5678323 $urilen5688324 $tokenlen5698325 $cp5708326 $c5718327))))

; __VERIFIER_assert precondition
(assert
  (forall (($c5718332 Int) ($tokenlen5698330 Int) ($c571 Int) ($cp5708331 Int) ($urilen568 Int) ($urilen5688329 Int) ($tokenlen569 Int) ($cp570 Int) ($scheme567 Int) ($scheme5678328 Int))
    (=> (and ($main_if186 $scheme567 $urilen568 $tokenlen569 $cp570 $c571 $scheme5678328 $urilen5688329 $tokenlen5698330 $cp5708331 $c5718332))
        ($__VERIFIER_assert_pre (ite (< (+ $cp5708331 1) $urilen5688329) 1 0)))))

; __VERIFIER_assert precondition
(assert
  (forall (($c5718332 Int) ($tokenlen5698330 Int) ($c571 Int) ($cp5708331 Int) ($urilen568 Int) ($urilen5688329 Int) ($tokenlen569 Int) ($cp570 Int) ($scheme567 Int) ($scheme5678328 Int))
    (=> (and (__VERIFIER_assert (ite (< (+ $cp5708331 1) $urilen5688329) 1 0))
             ($main_if186 $scheme567 $urilen568 $tokenlen569 $cp570 $c571 $scheme5678328 $urilen5688329 $tokenlen5698330 $cp5708331 $c5718332))
        ($__VERIFIER_assert_pre (ite (<= 0 (+ $cp5708331 1)) 1 0)))))

; goto END
(assert
  (forall (($c5718332 Int) ($tokenlen5698330 Int) ($c571 Int) ($cp5708331 Int) ($urilen568 Int) ($urilen5688329 Int) ($tokenlen569 Int) ($cp570 Int) ($scheme567 Int) ($scheme5678328 Int))
    (=> (and (= (+ $cp5708331 1) (- $urilen5688329 1))
             (__VERIFIER_assert (ite (<= 0 (+ $cp5708331 1)) 1 0))
             (__VERIFIER_assert (ite (< (+ $cp5708331 1) $urilen5688329) 1 0))
             ($main_if186 $scheme567 $urilen568 $tokenlen569 $cp570 $c571 $scheme5678328 $urilen5688329 $tokenlen5698330 $cp5708331 $c5718332))
        ($main_END $scheme567 $urilen568 $tokenlen569 $cp570 $c571 $scheme5678328 $urilen5688329 $tokenlen5698330 $cp5708331 $c5718332))))

; if else
(assert
  (forall (($c5718332 Int) ($tokenlen5698330 Int) ($c571 Int) ($cp5708331 Int) ($urilen568 Int) ($urilen5688329 Int) ($tokenlen569 Int) ($cp570 Int) ($scheme567 Int) ($scheme5678328 Int))
    (=> (and (not (= (+ $cp5708331 1) (- $urilen5688329 1)))
             (__VERIFIER_assert (ite (<= 0 (+ $cp5708331 1)) 1 0))
             (__VERIFIER_assert (ite (< (+ $cp5708331 1) $urilen5688329) 1 0))
             ($main_if186 $scheme567 $urilen568 $tokenlen569 $cp570 $c571 $scheme5678328 $urilen5688329 $tokenlen5698330 $cp5708331 $c5718332))
        ($main_if187 $scheme567 $urilen568 $tokenlen569 $cp570 $c571 $scheme5678328 $urilen5688329 $tokenlen5698330 $cp5708331 $c5718332))))

; __VERIFIER_assert precondition
(assert
  (forall (($int8338 Int) ($scheme567 Int) ($urilen568 Int) ($cp5708336 Int) ($c5718337 Int) ($scheme5678333 Int) ($urilen5688334 Int) ($tokenlen569 Int) ($cp570 Int) ($c571 Int) ($tokenlen5698335 Int))
    (=> (and (not (= $int8338 0))
             (<= (- 2147483648) $int8338)
             (<= $int8338 2147483647)
             ($main_if187 $scheme567 $urilen568 $tokenlen569 $cp570 $c571 $scheme5678333 $urilen5688334 $tokenlen5698335 $cp5708336 $c5718337))
        ($__VERIFIER_assert_pre (ite (< (+ $cp5708336 1) $urilen5688334) 1 0)))))

; __VERIFIER_assert precondition
(assert
  (forall (($int8338 Int) ($scheme567 Int) ($urilen568 Int) ($cp5708336 Int) ($c5718337 Int) ($scheme5678333 Int) ($urilen5688334 Int) ($tokenlen569 Int) ($cp570 Int) ($c571 Int) ($tokenlen5698335 Int))
    (=> (and (__VERIFIER_assert (ite (< (+ $cp5708336 1) $urilen5688334) 1 0))
             (not (= $int8338 0))
             (<= (- 2147483648) $int8338)
             (<= $int8338 2147483647)
             ($main_if187 $scheme567 $urilen568 $tokenlen569 $cp570 $c571 $scheme5678333 $urilen5688334 $tokenlen5698335 $cp5708336 $c5718337))
        ($__VERIFIER_assert_pre (ite (<= 0 (+ $cp5708336 1)) 1 0)))))

; loop entry $main_inv450
(assert
  (forall (($int8338 Int) ($scheme567 Int) ($urilen568 Int) ($cp5708336 Int) ($c5718337 Int) ($scheme5678333 Int) ($urilen5688334 Int) ($tokenlen569 Int) ($cp570 Int) ($c571 Int) ($tokenlen5698335 Int))
    (=> (and (__VERIFIER_assert (ite (<= 0 (+ $cp5708336 1)) 1 0))
             (__VERIFIER_assert (ite (< (+ $cp5708336 1) $urilen5688334) 1 0))
             (not (= $int8338 0))
             (<= (- 2147483648) $int8338)
             (<= $int8338 2147483647)
             ($main_if187 $scheme567 $urilen568 $tokenlen569 $cp570 $c571 $scheme5678333 $urilen5688334 $tokenlen5698335 $cp5708336 $c5718337))
        ($main_inv450 (+ $cp5708336 1) $urilen5688334 $tokenlen5698335 (+ $cp5708336 1) 0))))

; loop term $main_sum450
(assert
  (forall (($c5718343 Int) ($tokenlen5698341 Int) ($scheme5678339 Int) ($cp5708342 Int) ($urilen5688340 Int))
    (=> (and (not (and (not (= $cp5708342 (- $urilen5688340 1))) (< $c5718343 (- $tokenlen5698341 1)))))
        ($main_sum450 $scheme5678339 $urilen5688340 $tokenlen5698341 $cp5708342 $c5718343 $scheme5678339 $urilen5688340 $tokenlen5698341 $cp5708342 $c5718343))))

; __VERIFIER_assert precondition
(assert
  (forall (($c5718343 Int) ($tokenlen5698341 Int) ($scheme5678339 Int) ($cp5708342 Int) ($urilen5688340 Int))
    (=> (and (not (= $cp5708342 (- $urilen5688340 1)))
             (< $c5718343 (- $tokenlen5698341 1))
             ($main_inv450 $scheme5678339 $urilen5688340 $tokenlen5698341 $cp5708342 $c5718343))
        ($__VERIFIER_assert_pre (ite (< $cp5708342 $urilen5688340) 1 0)))))

; __VERIFIER_assert precondition
(assert
  (forall (($c5718343 Int) ($tokenlen5698341 Int) ($scheme5678339 Int) ($cp5708342 Int) ($urilen5688340 Int))
    (=> (and (__VERIFIER_assert (ite (< $cp5708342 $urilen5688340) 1 0))
             (not (= $cp5708342 (- $urilen5688340 1)))
             (< $c5718343 (- $tokenlen5698341 1))
             ($main_inv450 $scheme5678339 $urilen5688340 $tokenlen5698341 $cp5708342 $c5718343))
        ($__VERIFIER_assert_pre (ite (<= 0 $cp5708342) 1 0)))))

; __VERIFIER_assert precondition
(assert
  (forall (($int8344 Int) ($c5718343 Int) ($tokenlen5698341 Int) ($scheme5678339 Int) ($cp5708342 Int) ($urilen5688340 Int))
    (=> (and (not (= $int8344 0))
             (<= (- 2147483648) $int8344)
             (<= $int8344 2147483647)
             (__VERIFIER_assert (ite (<= 0 $cp5708342) 1 0))
             (__VERIFIER_assert (ite (< $cp5708342 $urilen5688340) 1 0))
             (not (= $cp5708342 (- $urilen5688340 1)))
             (< $c5718343 (- $tokenlen5698341 1))
             ($main_inv450 $scheme5678339 $urilen5688340 $tokenlen5698341 $cp5708342 $c5718343))
        ($__VERIFIER_assert_pre (ite (< (+ $c5718343 1) $tokenlen5698341) 1 0)))))

; __VERIFIER_assert precondition
(assert
  (forall (($int8344 Int) ($c5718343 Int) ($tokenlen5698341 Int) ($scheme5678339 Int) ($cp5708342 Int) ($urilen5688340 Int))
    (=> (and (__VERIFIER_assert (ite (< (+ $c5718343 1) $tokenlen5698341) 1 0))
             (not (= $int8344 0))
             (<= (- 2147483648) $int8344)
             (<= $int8344 2147483647)
             (__VERIFIER_assert (ite (<= 0 $cp5708342) 1 0))
             (__VERIFIER_assert (ite (< $cp5708342 $urilen5688340) 1 0))
             (not (= $cp5708342 (- $urilen5688340 1)))
             (< $c5718343 (- $tokenlen5698341 1))
             ($main_inv450 $scheme5678339 $urilen5688340 $tokenlen5698341 $cp5708342 $c5718343))
        ($__VERIFIER_assert_pre (ite (<= 0 (+ $c5718343 1)) 1 0)))))

; __VERIFIER_assert precondition
(assert
  (forall (($int8344 Int) ($c5718343 Int) ($tokenlen5698341 Int) ($scheme5678339 Int) ($cp5708342 Int) ($urilen5688340 Int))
    (=> (and (__VERIFIER_assert (ite (<= 0 (+ $c5718343 1)) 1 0))
             (__VERIFIER_assert (ite (< (+ $c5718343 1) $tokenlen5698341) 1 0))
             (not (= $int8344 0))
             (<= (- 2147483648) $int8344)
             (<= $int8344 2147483647)
             (__VERIFIER_assert (ite (<= 0 $cp5708342) 1 0))
             (__VERIFIER_assert (ite (< $cp5708342 $urilen5688340) 1 0))
             (not (= $cp5708342 (- $urilen5688340 1)))
             (< $c5718343 (- $tokenlen5698341 1))
             ($main_inv450 $scheme5678339 $urilen5688340 $tokenlen5698341 $cp5708342 $c5718343))
        ($__VERIFIER_assert_pre (ite (< $cp5708342 $urilen5688340) 1 0)))))

; __VERIFIER_assert precondition
(assert
  (forall (($int8344 Int) ($c5718343 Int) ($tokenlen5698341 Int) ($scheme5678339 Int) ($cp5708342 Int) ($urilen5688340 Int))
    (=> (and (__VERIFIER_assert (ite (< $cp5708342 $urilen5688340) 1 0))
             (__VERIFIER_assert (ite (<= 0 (+ $c5718343 1)) 1 0))
             (__VERIFIER_assert (ite (< (+ $c5718343 1) $tokenlen5698341) 1 0))
             (not (= $int8344 0))
             (<= (- 2147483648) $int8344)
             (<= $int8344 2147483647)
             (__VERIFIER_assert (ite (<= 0 $cp5708342) 1 0))
             (__VERIFIER_assert (ite (< $cp5708342 $urilen5688340) 1 0))
             (not (= $cp5708342 (- $urilen5688340 1)))
             (< $c5718343 (- $tokenlen5698341 1))
             ($main_inv450 $scheme5678339 $urilen5688340 $tokenlen5698341 $cp5708342 $c5718343))
        ($__VERIFIER_assert_pre (ite (<= 0 $cp5708342) 1 0)))))

; if then
(assert
  (forall (($int8344 Int) ($c5718343 Int) ($tokenlen5698341 Int) ($scheme5678339 Int) ($cp5708342 Int) ($urilen5688340 Int))
    (=> (and (__VERIFIER_assert (ite (<= 0 $cp5708342) 1 0))
             (__VERIFIER_assert (ite (< $cp5708342 $urilen5688340) 1 0))
             (__VERIFIER_assert (ite (<= 0 (+ $c5718343 1)) 1 0))
             (__VERIFIER_assert (ite (< (+ $c5718343 1) $tokenlen5698341) 1 0))
             (not (= $int8344 0))
             (<= (- 2147483648) $int8344)
             (<= $int8344 2147483647)
             (__VERIFIER_assert (ite (<= 0 $cp5708342) 1 0))
             (__VERIFIER_assert (ite (< $cp5708342 $urilen5688340) 1 0))
             (not (= $cp5708342 (- $urilen5688340 1)))
             (< $c5718343 (- $tokenlen5698341 1))
             ($main_inv450 $scheme5678339 $urilen5688340 $tokenlen5698341 $cp5708342 $c5718343))
        ($main_if188 $scheme5678339 $urilen5688340 $tokenlen5698341 $cp5708342 $c5718343 $scheme5678339 $urilen5688340 $tokenlen5698341 $cp5708342 (+ $c5718343 1)))))

; if else
(assert
  (forall (($int8344 Int) ($c5718343 Int) ($tokenlen5698341 Int) ($scheme5678339 Int) ($cp5708342 Int) ($urilen5688340 Int))
    (=> (and (= $int8344 0)
             (<= (- 2147483648) $int8344)
             (<= $int8344 2147483647)
             (__VERIFIER_assert (ite (<= 0 $cp5708342) 1 0))
             (__VERIFIER_assert (ite (< $cp5708342 $urilen5688340) 1 0))
             (not (= $cp5708342 (- $urilen5688340 1)))
             (< $c5718343 (- $tokenlen5698341 1))
             ($main_inv450 $scheme5678339 $urilen5688340 $tokenlen5698341 $cp5708342 $c5718343))
        ($main_if188 $scheme5678339 $urilen5688340 $tokenlen5698341 $cp5708342 $c5718343 $scheme5678339 $urilen5688340 $tokenlen5698341 $cp5708342 $c5718343))))

; forwards $main_inv450
(assert
  (forall (($urilen5688346 Int) ($c5718343 Int) ($scheme5678339 Int) ($cp5708342 Int) ($urilen5688340 Int) ($scheme5678345 Int) ($c5718349 Int) ($tokenlen5698347 Int) ($tokenlen5698341 Int) ($cp5708348 Int))
    (=> (and ($main_if188 $scheme5678339 $urilen5688340 $tokenlen5698341 $cp5708342 $c5718343 $scheme5678345 $urilen5688346 $tokenlen5698347 $cp5708348 $c5718349))
        ($main_inv450 $scheme5678345 $urilen5688346 $tokenlen5698347 (+ $cp5708348 1) $c5718349))))

; backwards $main_sum450
(assert
  (forall (($c5718354 Int) ($urilen5688351 Int) ($cp5708353 Int) ($scheme5678350 Int) ($urilen5688346 Int) ($c5718343 Int) ($scheme5678339 Int) ($cp5708342 Int) ($urilen5688340 Int) ($scheme5678345 Int) ($c5718349 Int) ($tokenlen5698352 Int) ($tokenlen5698347 Int) ($tokenlen5698341 Int) ($cp5708348 Int))
    (=> (and ($main_sum450 $scheme5678345 $urilen5688346 $tokenlen5698347 (+ $cp5708348 1) $c5718349 $scheme5678350 $urilen5688351 $tokenlen5698352 $cp5708353 $c5718354)
             ($main_if188 $scheme5678339 $urilen5688340 $tokenlen5698341 $cp5708342 $c5718343 $scheme5678345 $urilen5688346 $tokenlen5698347 $cp5708348 $c5718349))
        ($main_sum450 $scheme5678339 $urilen5688340 $tokenlen5698341 $cp5708342 $c5718343 $scheme5678350 $urilen5688351 $tokenlen5698352 $cp5708353 $c5718354))))

; goto END
(assert
  (forall (($scheme5678355 Int) ($int8338 Int) ($scheme567 Int) ($urilen5688356 Int) ($urilen568 Int) ($cp5708336 Int) ($c5718337 Int) ($urilen5688334 Int) ($cp5708358 Int) ($cp570 Int) ($c571 Int) ($tokenlen5698335 Int) ($scheme5678333 Int) ($tokenlen5698357 Int) ($tokenlen569 Int) ($c5718359 Int))
    (=> (and ($main_sum450 (+ $cp5708336 1) $urilen5688334 $tokenlen5698335 (+ $cp5708336 1) 0 $scheme5678355 $urilen5688356 $tokenlen5698357 $cp5708358 $c5718359)
             (__VERIFIER_assert (ite (<= 0 (+ $cp5708336 1)) 1 0))
             (__VERIFIER_assert (ite (< (+ $cp5708336 1) $urilen5688334) 1 0))
             (not (= $int8338 0))
             (<= (- 2147483648) $int8338)
             (<= $int8338 2147483647)
             ($main_if187 $scheme567 $urilen568 $tokenlen569 $cp570 $c571 $scheme5678333 $urilen5688334 $tokenlen5698335 $cp5708336 $c5718337))
        ($main_END $scheme567 $urilen568 $tokenlen569 $cp570 $c571 $scheme5678355 $urilen5688356 $tokenlen5698357 $cp5708358 $c5718359))))

; if else
(assert
  (forall (($int8338 Int) ($scheme567 Int) ($urilen568 Int) ($cp5708336 Int) ($c5718337 Int) ($scheme5678333 Int) ($urilen5688334 Int) ($tokenlen569 Int) ($cp570 Int) ($c571 Int) ($tokenlen5698335 Int))
    (=> (and (= $int8338 0)
             (<= (- 2147483648) $int8338)
             (<= $int8338 2147483647)
             ($main_if187 $scheme567 $urilen568 $tokenlen569 $cp570 $c571 $scheme5678333 $urilen5688334 $tokenlen5698335 $cp5708336 $c5718337))
        ($main_if189 $scheme567 $urilen568 $tokenlen569 $cp570 $c571 (+ $cp5708336 1) $urilen5688334 $tokenlen5698335 (+ $cp5708336 1) $c5718337))))

; if then
(assert
  (forall (($scheme567 Int) ($c571 Int) ($urilen568 Int) ($urilen5688361 Int) ($cp5708363 Int) ($c5718364 Int) ($tokenlen569 Int) ($cp570 Int) ($tokenlen5698362 Int) ($scheme5678360 Int))
    (=> (and ($main_if189 $scheme567 $urilen568 $tokenlen569 $cp570 $c571 $scheme5678360 $urilen5688361 $tokenlen5698362 $cp5708363 $c5718364))
        ($main_if190 $scheme567 $urilen568 $tokenlen569 $cp570 $c571 $scheme5678360 $urilen5688361 $tokenlen5698362 $cp5708363 $c5718364))))

; if else
(assert
  (forall (($c571 Int) ($c5718305 Int) ($urilen568 Int) ($tokenlen5698303 Int) ($int8306 Int) ($scheme5678301 Int) ($tokenlen569 Int) ($cp5708304 Int) ($cp570 Int) ($scheme567 Int) ($urilen5688302 Int))
    (=> (and (= $int8306 0)
             (<= (- 2147483648) $int8306)
             (<= $int8306 2147483647)
             (__VERIFIER_assert (ite (<= 0 (- $scheme5678301 1)) 1 0))
             (__VERIFIER_assert (ite (< (- $scheme5678301 1) $urilen5688302) 1 0))
             ($main_if184 $scheme567 $urilen568 $tokenlen569 $cp570 $c571 $scheme5678301 $urilen5688302 $tokenlen5698303 $cp5708304 $c5718305))
        ($main_if190 $scheme567 $urilen568 $tokenlen569 $cp570 $c571 $scheme5678301 $urilen5688302 $tokenlen5698303 $scheme5678301 $c5718305))))

; label END
(assert
  (forall (($c571 Int) ($cp5708368 Int) ($urilen568 Int) ($scheme5678365 Int) ($urilen5688366 Int) ($tokenlen569 Int) ($cp570 Int) ($c5718369 Int) ($scheme567 Int) ($tokenlen5698367 Int))
    (=> (and ($main_if190 $scheme567 $urilen568 $tokenlen569 $cp570 $c571 $scheme5678365 $urilen5688366 $tokenlen5698367 $cp5708368 $c5718369))
        ($main_END $scheme567 $urilen568 $tokenlen569 $cp570 $c571 $scheme5678365 $urilen5688366 $tokenlen5698367 $cp5708368 $c5718369))))

(check-sat)
